c 
p cnf 114 190
-16 20 7 0
7 20 -9 0
-18 7 2 0
1 -4 20 0
13 -3 -19 0
5 -19 -17 0
-13 -7 21 0
-21 -3 22 0
-22 8 16 0
-4 -11 23 0
-4 -11 -23 0
-8 -9 24 0
-24 -16 25 0
-25 20 -5 0
8 -17 26 0
-26 -3 -9 0
-16 13 27 0
-27 -11 -12 0
-10 12 28 0
-28 5 29 0
-29 16 19 0
-6 -1 30 0
-6 -1 -30 0
5 15 31 0
-31 13 32 0
-32 -4 14 0
-3 10 4 0
20 33 34 0
20 33 -34 0
20 -33 34 0
20 -33 -34 0
-11 35 36 0
-11 35 -36 0
-11 -35 36 0
-11 -35 -36 0
-13 -11 37 0
-13 -11 -37 0
13 14 38 0
13 14 -38 0
10 1 39 0
-39 12 40 0
-40 -2 -15 0
2 9 3 0
16 41 42 0
16 41 -42 0
16 -41 42 0
16 -41 -42 0
8 4 -13 0
-12 -3 -13 0
20 16 43 0
-43 -3 44 0
-44 14 2 0
15 11 45 0
-45 -20 46 0
-46 8 6 0
2 -1 -17 0
-3 8 47 0
-3 8 -47 0
1 13 48 0
-48 -15 6 0
-11 -1 -15 0
-13 8 49 0
-49 6 17 0
-11 -12 50 0
-11 -12 -50 0
10 15 -4 0
-5 12 51 0
-51 14 7 0
-19 -14 52 0
-52 9 53 0
-53 -7 5 0
4 17 54 0
-54 -16 55 0
-55 12 8 0
12 -6 56 0
-56 17 57 0
-57 -8 -10 0
-4 -13 58 0
-4 -13 -58 0
-6 59 60 0
-6 59 -60 0
-6 -59 60 0
-6 -59 -60 0
-5 6 61 0
-61 15 62 0
-62 -20 8 0
-17 63 64 0
-17 63 -64 0
-17 -63 64 0
-17 -63 -64 0
-4 65 66 0
-4 65 -66 0
-4 -65 66 0
-4 -65 -66 0
13 67 68 0
13 67 -68 0
13 -67 68 0
13 -67 -68 0
-9 69 70 0
-9 69 -70 0
-9 -69 70 0
-9 -69 -70 0
14 12 71 0
14 12 -71 0
-12 5 72 0
-72 -14 2 0
-13 6 73 0
-73 12 74 0
-74 -17 -3 0
15 75 76 0
15 75 -76 0
15 -75 76 0
15 -75 -76 0
9 77 78 0
9 77 -78 0
9 -77 78 0
9 -77 -78 0
-10 -3 79 0
-10 -3 -79 0
1 -4 80 0
-80 2 81 0
-81 6 17 0
11 1 -12 0
5 -13 82 0
-82 20 83 0
-83 -6 -9 0
-13 7 84 0
-84 19 85 0
-85 18 -5 0
-12 86 87 0
-12 86 -87 0
-12 -86 87 0
-12 -86 -87 0
3 8 88 0
3 8 -88 0
6 -15 16 0
-7 -8 89 0
-7 -8 -89 0
-14 4 90 0
-14 4 -90 0
5 91 92 0
5 91 -92 0
5 -91 92 0
5 -91 -92 0
-11 12 93 0
-93 -3 -9 0
8 94 95 0
8 94 -95 0
8 -94 95 0
8 -94 -95 0
18 12 96 0
-96 11 8 0
3 6 97 0
3 6 -97 0
7 -9 -12 0
-16 -2 98 0
-98 -13 1 0
4 17 99 0
-99 -14 -12 0
18 1 100 0
-100 8 101 0
-101 -15 -17 0
-18 3 -8 0
-12 102 103 0
-12 102 -103 0
-12 -102 103 0
-12 -102 -103 0
13 8 104 0
-104 -20 -15 0
18 105 106 0
18 105 -106 0
18 -105 106 0
18 -105 -106 0
-1 -14 107 0
-107 5 108 0
-108 12 -18 0
-2 109 110 0
-2 109 -110 0
-2 -109 110 0
-2 -109 -110 0
9 -19 111 0
-111 18 6 0
-15 -10 112 0
-112 17 -2 0
-9 -20 -2 0
4 -11 113 0
4 -11 -113 0
16 -2 114 0
16 -2 -114 0
-4 -18 -12 0
